80
0 68 70 31 16 14 73 75 55 11 
64 3 63 52 34 54 19 61 60 4 
45 47 40 23 78 35 51 72 9 57 
26 5 65 46 53 7 77 24 74 10 
69 36 8 25 29 76 66 28 79 2 
49 48 27 58 71 32 20 42 30 13 
37 39 12 38 15 44 59 43 21 22 
33 17 67 18 6 41 1 50 62 56 
